Running for instance ./models/rc105.txt
Generating routes...
Atingindo numero maximo de execucoes. abrindo alpha
Atingindo numero maximo de execucoes. abrindo alpha
Atingindo numero maximo de execucoes. abrindo alpha
Atingindo numero maximo de execucoes. abrindo alpha
Atingindo numero maximo de execucoes. abrindo alpha
Atingindo numero maximo de execucoes. abrindo alpha
Maximo de execucoes sem resultados atingido. 3644 rotas geradas
Execution time:  173.603841  seconds
Academic license - for non-commercial use only
Warning: constraint name "Cliente esta na rota x1" has a space
Optimize a model with 26 rows, 3644 columns and 19679 nonzeros
Variable types: 0 continuous, 3644 integer (0 binary)
Coefficient statistics:
  Matrix range     [1e+00, 1e+00]
  Objective range  [6e+01, 2e+02]
  Bounds range     [1e+00, 1e+00]
  RHS range        [1e+00, 2e+01]
Found heuristic solution: objective 865.5167104
Presolve removed 1 rows and 2274 columns
Presolve time: 0.02s
Presolved: 25 rows, 1370 columns, 5226 nonzeros
Found heuristic solution: objective 859.1815144
Variable types: 0 continuous, 1370 integer (1370 binary)

Root relaxation: objective 6.253430e+02, 60 iterations, 0.00 seconds

    Nodes    |    Current Node    |     Objective Bounds      |     Work
 Expl Unexpl |  Obj  Depth IntInf | Incumbent    BestBd   Gap | It/Node Time

     0     0  625.34295    0    6  859.18151  625.34295  27.2%     -    0s
H    0     0                     708.8179177  625.34295  11.8%     -    0s
H    0     0                     643.2858567  625.34295  2.79%     -    0s
H    0     0                     639.5409921  625.34295  2.22%     -    0s
H    0     0                     625.3429530  625.34295  0.00%     -    0s

Explored 1 nodes (60 simplex iterations) in 0.03 seconds
Thread count was 8 (of 8 available processors)

Solution count 5: 625.343 639.541 643.286 ... 859.182

Optimal solution found (tolerance 1.00e-04)
Best objective 6.253429530265e+02, best bound 6.253429530265e+02, gap 0.0000%

Routes:
19 18 21 20
14 16 9 13
15 17
11 10 12
23 25
2 7 8 6 5 4 3 1
22 24

Distance: 625.342953026
Execution time:  173.931758  seconds
